302 357 431 559 582 672 702 720 808 873
39 102 145 222 255 365 336 297 540 417
357 324 236 415 404 478 547 605 634 695
219 145 0 406 297 618 464 415 751 688
404 25 676 582 445 801 722 881 873 835
34 0 222 128 39 330 236 781 373 350
179 37 86 240 128 691 365 487 852 613
274 32 107 334 181 417 605 478 487 540
0 216 34 86 175 613 330 336 881 572
102 569 324 477 559 598 824 634 686 787
